CSW08
Position Depot: Random
Horizon for Depot: Small
Position of customers: Cluster
Distribution of the demand: Small
Width of time windows: Wide
Distribution of the service: Small

VEHICLE 
NUMBER 	 CAPACITY 
 11 	 	 67 
 
CUSTOMER
CUST NO. 	 XCOORD.  	 YCOORD. 	 DEMAND 	 READY TIME 	 DUE DATE 	 SERVICE TIME 
 0 	 	 581 	 	 64 	 	 0 	 	 0 	 	 1930 	 	 0 
  1 	 	 756 	 	 969 	 	 10 	 	 707 	 	 1069 	 	 69 
  2 	 	 777 	 	 906 	 	 9 	 	 671 	 	 950 	 	 66 
  3 	 	 996 	 	 268 	 	 7 	 	 559 	 	 927 	 	 63 
  4 	 	 420 	 	 808 	 	 10 	 	 498 	 	 837 	 	 76 
  5 	 	 60 	 	 562 	 	 6 	 	 1074 	 	 1283 	 	 54 
  6 	 	 631 	 	 980 	 	 8 	 	 638 	 	 1009 	 	 81 
  7 	 	 588 	 	 948 	 	 7 	 	 657 	 	 972 	 	 90 
  8 	 	 344 	 	 710 	 	 5 	 	 1441 	 	 1930 	 	 74 
  9 	 	 828 	 	 944 	 	 8 	 	 713 	 	 1197 	 	 88 
  10 	 	 683 	 	 970 	 	 10 	 	 970 	 	 1221 	 	 97 
  11 	 	 713 	 	 936 	 	 8 	 	 684 	 	 970 	 	 59 
  12 	 	 657 	 	 992 	 	 10 	 	 1368 	 	 1655 	 	 65 
  13 	 	 784 	 	 904 	 	 9 	 	 1433 	 	 1930 	 	 69 
  14 	 	 701 	 	 850 	 	 7 	 	 632 	 	 874 	 	 90 
  15 	 	 873 	 	 884 	 	 8 	 	 752 	 	 957 	 	 62 
  16 	 	 979 	 	 275 	 	 6 	 	 1510 	 	 1930 	 	 91 
  17 	 	 481 	 	 707 	 	 6 	 	 685 	 	 1007 	 	 70 
  18 	 	 449 	 	 849 	 	 6 	 	 481 	 	 875 	 	 87 
  19 	 	 26 	 	 528 	 	 7 	 	 579 	 	 795 	 	 71 
  20 	 	 799 	 	 875 	 	 8 	 	 653 	 	 1127 	 	 56 
  21 	 	 776 	 	 976 	 	 5 	 	 1443 	 	 1930 	 	 97 
  22 	 	 780 	 	 863 	 	 7 	 	 637 	 	 905 	 	 97 
  23 	 	 782 	 	 879 	 	 10 	 	 645 	 	 923 	 	 71 
  24 	 	 320 	 	 481 	 	 6 	 	 1587 	 	 1930 	 	 59 
  25 	 	 841 	 	 860 	 	 5 	 	 604 	 	 921 	 	 58 
  26 	 	 946 	 	 194 	 	 10 	 	 181 	 	 595 	 	 54 
  27 	 	 411 	 	 759 	 	 5 	 	 1635 	 	 1930 	 	 97 
  28 	 	 809 	 	 918 	 	 6 	 	 1001 	 	 1282 	 	 56 
  29 	 	 94 	 	 716 	 	 7 	 	 1586 	 	 1829 	 	 57 
  30 	 	 982 	 	 308 	 	 8 	 	 218 	 	 516 	 	 65 
  31 	 	 90 	 	 546 	 	 7 	 	 292 	 	 756 	 	 86 
  32 	 	 736 	 	 953 	 	 7 	 	 1503 	 	 1749 	 	 84 
  33 	 	 392 	 	 810 	 	 6 	 	 999 	 	 1206 	 	 76 
  34 	 	 762 	 	 996 	 	 8 	 	 1105 	 	 1570 	 	 54 
  35 	 	 428 	 	 828 	 	 6 	 	 765 	 	 1026 	 	 61 
  36 	 	 694 	 	 954 	 	 7 	 	 1372 	 	 1843 	 	 92 
  37 	 	 327 	 	 823 	 	 5 	 	 736 	 	 1221 	 	 94 
  38 	 	 626 	 	 958 	 	 9 	 	 1011 	 	 1240 	 	 96 
  39 	 	 440 	 	 782 	 	 7 	 	 1004 	 	 1322 	 	 71 
  40 	 	 743 	 	 993 	 	 7 	 	 786 	 	 1230 	 	 60 
  41 	 	 980 	 	 461 	 	 9 	 	 1588 	 	 1892 	 	 99 
  42 	 	 450 	 	 894 	 	 8 	 	 469 	 	 924 	 	 60 
  43 	 	 845 	 	 847 	 	 6 	 	 1662 	 	 1930 	 	 93 
  44 	 	 61 	 	 538 	 	 7 	 	 359 	 	 812 	 	 98 
  45 	 	 479 	 	 995 	 	 9 	 	 618 	 	 1030 	 	 100 
  46 	 	 623 	 	 972 	 	 6 	 	 565 	 	 999 	 	 53 
  47 	 	 661 	 	 969 	 	 7 	 	 619 	 	 999 	 	 74 
  48 	 	 377 	 	 670 	 	 10 	 	 1280 	 	 1564 	 	 71 
  49 	 	 557 	 	 808 	 	 6 	 	 1200 	 	 1425 	 	 77 
  50 	 	 897 	 	 325 	 	 6 	 	 767 	 	 1211 	 	 77 
  51 	 	 92 	 	 590 	 	 5 	 	 519 	 	 790 	 	 91 
  52 	 	 141 	 	 605 	 	 10 	 	 666 	 	 992 	 	 85 
  53 	 	 883 	 	 968 	 	 9 	 	 802 	 	 1048 	 	 100 
  54 	 	 65 	 	 541 	 	 8 	 	 553 	 	 772 	 	 58 
  55 	 	 80 	 	 536 	 	 7 	 	 1373 	 	 1863 	 	 56 
  56 	 	 662 	 	 985 	 	 9 	 	 1554 	 	 1930 	 	 58 
  57 	 	 435 	 	 854 	 	 10 	 	 659 	 	 1136 	 	 70 
  58 	 	 63 	 	 550 	 	 5 	 	 571 	 	 999 	 	 92 
  59 	 	 740 	 	 925 	 	 7 	 	 759 	 	 963 	 	 83 
  60 	 	 640 	 	 947 	 	 8 	 	 1122 	 	 1442 	 	 99 
  61 	 	 622 	 	 955 	 	 8 	 	 993 	 	 1333 	 	 61 
  62 	 	 728 	 	 907 	 	 9 	 	 1098 	 	 1511 	 	 83 
  63 	 	 574 	 	 966 	 	 6 	 	 501 	 	 992 	 	 61 
  64 	 	 743 	 	 387 	 	 7 	 	 -58 	 	 397 	 	 90 
  65 	 	 821 	 	 799 	 	 5 	 	 573 	 	 850 	 	 63 
  66 	 	 448 	 	 772 	 	 9 	 	 1430 	 	 1930 	 	 91 
  67 	 	 11 	 	 474 	 	 10 	 	 354 	 	 772 	 	 57 
  68 	 	 104 	 	 524 	 	 7 	 	 415 	 	 728 	 	 90 
  69 	 	 942 	 	 252 	 	 5 	 	 638 	 	 972 	 	 88 
  70 	 	 699 	 	 864 	 	 9 	 	 812 	 	 1021 	 	 58 
  71 	 	 844 	 	 967 	 	 6 	 	 657 	 	 1059 	 	 54 
  72 	 	 898 	 	 222 	 	 10 	 	 1064 	 	 1309 	 	 52 
  73 	 	 718 	 	 918 	 	 8 	 	 1472 	 	 1689 	 	 80 
  74 	 	 409 	 	 860 	 	 5 	 	 674 	 	 895 	 	 92 
  75 	 	 900 	 	 153 	 	 7 	 	 463 	 	 758 	 	 59 
  76 	 	 50 	 	 655 	 	 6 	 	 1507 	 	 1930 	 	 60 
  77 	 	 832 	 	 886 	 	 10 	 	 999 	 	 1266 	 	 84 
  78 	 	 29 	 	 541 	 	 6 	 	 423 	 	 802 	 	 89 
  79 	 	 835 	 	 985 	 	 9 	 	 1368 	 	 1858 	 	 100 
  80 	 	 436 	 	 791 	 	 10 	 	 458 	 	 815 	 	 74 
  81 	 	 47 	 	 583 	 	 5 	 	 1348 	 	 1691 	 	 71 
  82 	 	 153 	 	 542 	 	 8 	 	 302 	 	 705 	 	 78 
  83 	 	 637 	 	 979 	 	 9 	 	 1433 	 	 1900 	 	 90 
  84 	 	 994 	 	 287 	 	 7 	 	 631 	 	 1073 	 	 72 
  85 	 	 632 	 	 913 	 	 9 	 	 1461 	 	 1831 	 	 52 
  86 	 	 505 	 	 833 	 	 9 	 	 1484 	 	 1930 	 	 65 
  87 	 	 895 	 	 969 	 	 6 	 	 1605 	 	 1930 	 	 99 
  88 	 	 783 	 	 981 	 	 5 	 	 1593 	 	 1930 	 	 86 
  89 	 	 630 	 	 973 	 	 8 	 	 1064 	 	 1425 	 	 69 
  90 	 	 985 	 	 941 	 	 8 	 	 1505 	 	 1930 	 	 55 
  91 	 	 385 	 	 826 	 	 7 	 	 1499 	 	 1930 	 	 82 
  92 	 	 916 	 	 248 	 	 6 	 	 1500 	 	 1701 	 	 86 
  93 	 	 429 	 	 903 	 	 8 	 	 440 	 	 937 	 	 66 
  94 	 	 994 	 	 266 	 	 6 	 	 1302 	 	 1666 	 	 89 
  95 	 	 547 	 	 961 	 	 8 	 	 646 	 	 987 	 	 75 
  96 	 	 766 	 	 891 	 	 5 	 	 838 	 	 1076 	 	 88 
  97 	 	 834 	 	 841 	 	 8 	 	 462 	 	 898 	 	 76 
  98 	 	 587 	 	 968 	 	 9 	 	 946 	 	 1320 	 	 96 
  99 	 	 431 	 	 878 	 	 9 	 	 473 	 	 910 	 	 61 
  100 	 	 578 	 	 867 	 	 6 	 	 448 	 	 883 	 	 77 
 